1 - 6
2 - 2
3 - 1
4 - 2
5 - 1
6 - 1
7 - 1
8 - 2
9 - 2
10 - 2
11 - 1
12 - 4
13 - 3
14 - 1
15 - 3
16 - 1
17 - 1
18 - 3
19 - 1
20 - 1
21 - 7
22 - 2
23 - 3
24 - 2
25 - 4
26 - 5
27 - 3
28 - 11
29 - 7
30 - 4
31 - 3
32 - 10
33 - 6
34 - 6
35 - 8
36 - 7
37 - 7
38 - 12
39 - 5
40 - 6
41 - 2
42 - 9
43 - 7
44 - 6
45 - 5
46 - 11
47 - 6
48 - 10
49 - 11
50 - 10
51 - 10
52 - 9
53 - 11
54 - 13
55 - 10
56 - 14
57 - 11
58 - 11
59 - 13
60 - 9
61 - 12
62 - 11
63 - 15
64 - 8
65 - 14
66 - 10
67 - 17
68 - 13
69 - 11
70 - 19
71 - 17
72 - 19
73 - 12
74 - 11
75 - 14
76 - 13
77 - 18
78 - 13
79 - 18
80 - 16
81 - 22
82 - 11
83 - 23
84 - 20
85 - 22
86 - 21
87 - 12
88 - 11
89 - 18
90 - 15
91 - 20
92 - 24
93 - 13
94 - 15
95 - 15
96 - 13
97 - 25
98 - 22
99 - 30
100 - 22
Average: 10